NAME : n40w100.005.377.tour
COMMENT : Length = 377
COMMENT : Found by LKH [Keld Helsgaun] Tue May  2 05:18:27 2017
TYPE : TOUR
DIMENSION : 41
TOUR_SECTION
1
2
30
13
21
7
25
5
38
26
27
29
15
35
16
22
14
34
28
3
17
32
8
40
33
24
31
4
11
19
6
36
9
37
12
23
20
18
10
41
39
-1
EOF
